100
2527
4
61
4
36
15
0 7
0 8
0 10
0 11
0 13
0 17
0 20
0 21
0 22
0 23
0 24
0 28
0 29
0 30
0 31
0 32
0 33
0 35
0 37
0 38
0 40
0 41
0 46
0 47
0 49
0 50
0 53
0 56
0 57
0 58
0 59
0 60
0 63
0 64
0 66
0 67
0 69
0 72
0 73
0 77
0 79
0 80
0 81
0 86
0 87
0 90
0 92
0 93
0 95
0 97
1 2
1 3
1 7
1 10
1 11
1 12
1 14
1 15
1 16
1 17
1 18
1 23
1 24
1 25
1 29
1 30
1 33
1 35
1 36
1 37
1 43
1 45
1 46
1 48
1 49
1 57
1 60
1 65
1 66
1 68
1 69
1 71
1 72
1 75
1 76
1 79
1 81
1 82
1 85
1 86
1 88
1 90
1 97
2 5
2 6
2 9
2 10
2 13
2 16
2 17
2 18
2 19
2 21
2 25
2 27
2 28
2 33
2 38
2 39
2 40
2 41
2 44
2 45
2 46
2 48
2 49
2 50
2 52
2 54
2 55
2 59
2 60
2 62
2 63
2 64
2 65
2 67
2 68
2 69
2 72
2 73
2 75
2 77
2 79
2 82
2 86
2 91
2 93
2 94
2 97
2 98
2 99
3 4
3 5
3 7
3 11
3 14
3 17
3 19
3 21
3 23
3 24
3 25
3 28
3 29
3 31
3 34
3 35
3 38
3 39
3 40
3 41
3 43
3 45
3 46
3 47
3 52
3 53
3 54
3 55
3 57
3 58
3 59
3 61
3 63
3 65
3 67
3 72
3 73
3 74
3 76
3 77
3 80
3 81
3 82
3 86
3 87
3 89
3 90
3 91
3 92
3 96
4 7
4 8
4 10
4 14
4 16
4 17
4 19
4 21
4 22
4 24
4 30
4 31
4 33
4 35
4 38
4 40
4 42
4 45
4 46
4 47
4 49
4 50
4 51
4 52
4 53
4 55
4 57
4 59
4 60
4 62
4 65
4 66
4 72
4 73
4 74
4 75
4 77
4 78
4 79
4 85
4 87
4 88
4 92
4 94
4 95
4 96
4 98
5 6
5 8
5 9
5 10
5 14
5 15
5 18
5 21
5 22
5 23
5 26
5 28
5 31
5 32
5 33
5 38
5 40
5 41
5 42
5 44
5 46
5 47
5 50
5 51
5 53
5 54
5 55
5 60
5 61
5 62
5 66
5 67
5 69
5 70
5 73
5 75
5 77
5 81
5 82
5 83
5 84
5 86
5 87
5 88
5 89
5 90
5 95
5 96
5 98
5 99
6 9
6 10
6 11
6 13
6 15
6 17
6 18
6 19
6 20
6 21
6 23
6 24
6 25
6 28
6 29
6 30
6 31
6 32
6 34
6 36
6 42
6 44
6 45
6 48
6 50
6 55
6 56
6 57
6 60
6 61
6 62
6 63
6 64
6 65
6 67
6 68
6 71
6 73
6 74
6 77
6 80
6 82
6 83
6 87
6 90
6 92
6 96
6 99
7 12
7 15
7 16
7 17
7 20
7 21
7 24
7 25
7 28
7 31
7 38
7 39
7 43
7 46
7 52
7 53
7 55
7 57
7 58
7 59
7 60
7 61
7 63
7 65
7 66
7 67
7 71
7 73
7 75
7 76
7 77
7 78
7 79
7 80
7 81
7 83
7 87
7 88
7 89
7 91
7 93
7 95
7 96
7 97
7 98
7 99
8 12
8 13
8 17
8 20
8 21
8 23
8 24
8 26
8 27
8 29
8 32
8 34
8 35
8 38
8 42
8 46
8 47
8 51
8 53
8 55
8 56
8 58
8 59
8 61
8 63
8 68
8 71
8 74
8 76
8 77
8 80
8 81
8 82
8 83
8 88
8 92
8 93
8 94
8 95
8 99
9 11
9 12
9 14
9 18
9 19
9 20
9 29
9 30
9 34
9 35
9 42
9 43
9 45
9 47
9 48
9 49
9 52
9 53
9 57
9 59
9 60
9 63
9 65
9 67
9 69
9 72
9 75
9 76
9 77
9 78
9 80
9 82
9 84
9 86
9 87
9 89
9 90
9 92
9 95
9 96
9 99
10 11
10 14
10 15
10 16
10 17
10 18
10 19
10 20
10 22
10 23
10 24
10 25
10 26
10 29
10 30
10 31
10 32
10 35
10 36
10 37
10 39
10 45
10 46
10 47
10 48
10 49
10 53
10 58
10 59
10 63
10 70
10 72
10 73
10 75
10 78
10 81
10 83
10 85
10 86
10 87
10 89
10 90
10 91
10 93
10 95
10 98
10 99
11 12
11 13
11 14
11 16
11 17
11 18
11 19
11 20
11 21
11 22
11 25
11 26
11 27
11 29
11 34
11 36
11 37
11 39
11 40
11 41
11 42
11 44
11 45
11 47
11 48
11 50
11 51
11 53
11 63
11 66
11 67
11 70
11 71
11 74
11 75
11 76
11 77
11 82
11 83
11 86
11 89
11 90
11 94
11 97
11 98
11 99
12 14
12 16
12 17
12 18
12 20
12 22
12 23
12 24
12 25
12 29
12 33
12 37
12 38
12 39
12 41
12 42
12 43
12 47
12 51
12 52
12 56
12 57
12 60
12 61
12 64
12 65
12 66
12 68
12 69
12 70
12 74
12 75
12 81
12 86
12 87
12 88
12 89
12 91
12 93
12 94
12 97
12 99
13 16
13 17
13 20
13 21
13 25
13 29
13 30
13 32
13 34
13 35
13 36
13 38
13 39
13 40
13 42
13 43
13 46
13 51
13 52
13 55
13 56
13 57
13 58
13 59
13 60
13 61
13 63
13 68
13 70
13 72
13 73
13 74
13 77
13 78
13 79
13 80
13 81
13 89
13 92
13 93
13 94
13 96
13 97
13 98
14 20
14 22
14 25
14 26
14 27
14 28
14 29
14 30
14 32
14 33
14 34
14 40
14 41
14 42
14 43
14 51
14 52
14 55
14 58
14 60
14 62
14 64
14 66
14 71
14 72
14 78
14 79
14 80
14 85
14 87
14 89
14 91
14 93
14 94
14 96
14 97
14 99
15 16
15 17
15 18
15 19
15 22
15 24
15 25
15 26
15 28
15 29
15 37
15 40
15 41
15 42
15 45
15 47
15 49
15 51
15 53
15 54
15 56
15 62
15 63
15 66
15 67
15 68
15 69
15 72
15 76
15 78
15 80
15 81
15 82
15 84
15 86
15 87
15 88
15 89
15 90
15 92
15 93
15 94
15 98
16 18
16 19
16 20
16 21
16 24
16 27
16 29
16 30
16 33
16 37
16 41
16 42
16 43
16 44
16 45
16 46
16 48
16 49
16 53
16 54
16 55
16 57
16 58
16 60
16 62
16 63
16 64
16 65
16 67
16 69
16 71
16 74
16 75
16 83
16 85
16 88
16 93
16 94
16 96
16 97
16 98
16 99
17 20
17 21
17 22
17 23
17 27
17 30
17 31
17 32
17 36
17 37
17 38
17 40
17 41
17 43
17 44
17 45
17 46
17 47
17 48
17 54
17 60
17 61
17 64
17 68
17 72
17 73
17 75
17 78
17 79
17 81
17 88
17 90
17 92
17 93
17 97
17 98
18 20
18 22
18 24
18 26
18 30
18 32
18 35
18 37
18 39
18 42
18 43
18 46
18 47
18 48
18 52
18 53
18 56
18 57
18 58
18 62
18 63
18 65
18 67
18 68
18 69
18 71
18 72
18 73
18 74
18 80
18 81
18 82
18 83
18 84
18 87
18 91
18 92
18 93
18 95
18 96
18 97
18 98
18 99
19 20
19 23
19 24
19 25
19 26
19 27
19 28
19 30
19 31
19 32
19 35
19 37
19 38
19 39
19 41
19 42
19 43
19 44
19 47
19 49
19 50
19 52
19 53
19 54
19 57
19 58
19 59
19 60
19 64
19 65
19 67
19 71
19 73
19 75
19 77
19 78
19 80
19 83
19 85
19 87
19 88
19 90
19 92
19 94
19 95
19 96
19 98
20 21
20 27
20 28
20 31
20 33
20 34
20 37
20 40
20 42
20 44
20 45
20 46
20 48
20 49
20 51
20 55
20 59
20 62
20 63
20 64
20 65
20 66
20 70
20 71
20 72
20 74
20 75
20 77
20 79
20 80
20 81
20 83
20 91
20 92
20 93
20 94
20 97
20 99
21 23
21 24
21 25
21 26
21 28
21 29
21 30
21 33
21 35
21 36
21 39
21 42
21 45
21 47
21 48
21 52
21 54
21 56
21 57
21 59
21 60
21 61
21 68
21 70
21 72
21 74
21 76
21 78
21 80
21 81
21 82
21 83
21 84
21 85
21 86
21 88
21 89
21 91
21 94
21 95
21 96
21 98
21 99
22 26
22 28
22 29
22 34
22 38
22 40
22 41
22 42
22 45
22 46
22 47
22 48
22 49
22 50
22 51
22 54
22 55
22 56
22 58
22 61
22 62
22 63
22 64
22 66
22 67
22 69
22 70
22 72
22 75
22 76
22 77
22 78
22 79
22 80
22 83
22 84
22 87
22 89
22 90
22 92
22 93
22 94
22 97
22 98
22 99
23 26
23 27
23 28
23 29
23 30
23 32
23 33
23 37
23 38
23 41
23 42
23 43
23 44
23 46
23 47
23 48
23 51
23 52
23 53
23 54
23 56
23 57
23 58
23 63
23 64
23 66
23 68
23 70
23 72
23 73
23 74
23 75
23 78
23 80
23 81
23 82
23 85
23 86
23 90
23 96
23 97
23 98
24 25
24 26
24 29
24 31
24 32
24 36
24 38
24 40
24 41
24 43
24 44
24 45
24 46
24 49
24 50
24 51
24 54
24 57
24 59
24 61
24 62
24 64
24 66
24 68
24 69
24 70
24 72
24 73
24 74
24 75
24 76
24 78
24 79
24 80
24 81
24 82
24 83
24 84
24 87
24 88
24 90
24 96
25 26
25 28
25 29
25 33
25 35
25 36
25 37
25 38
25 40
25 41
25 46
25 47
25 49
25 52
25 53
25 56
25 58
25 60
25 61
25 62
25 65
25 66
25 67
25 68
25 73
25 76
25 78
25 79
25 82
25 83
25 84
25 86
25 87
25 88
25 91
25 92
25 94
25 97
25 98
25 99
26 30
26 32
26 33
26 35
26 37
26 38
26 42
26 43
26 44
26 45
26 47
26 48
26 49
26 51
26 52
26 53
26 54
26 55
26 56
26 59
26 60
26 61
26 62
26 69
26 71
26 73
26 76
26 78
26 79
26 80
26 81
26 82
26 86
26 94
26 95
26 98
27 28
27 29
27 30
27 32
27 34
27 35
27 36
27 39
27 40
27 42
27 43
27 45
27 46
27 47
27 48
27 49
27 50
27 55
27 58
27 59
27 63
27 66
27 68
27 69
27 71
27 74
27 75
27 77
27 78
27 81
27 83
27 84
27 89
27 90
27 93
27 95
27 98
28 31
28 32
28 35
28 36
28 37
28 41
28 42
28 43
28 44
28 45
28 47
28 48
28 51
28 53
28 55
28 57
28 58
28 59
28 66
28 68
28 69
28 71
28 72
28 74
28 76
28 78
28 80
28 82
28 85
28 87
28 93
28 94
28 96
28 97
28 98
29 31
29 34
29 36
29 37
29 39
29 40
29 41
29 45
29 48
29 49
29 52
29 55
29 56
29 59
29 61
29 62
29 63
29 65
29 67
29 68
29 69
29 71
29 72
29 74
29 75
29 78
29 79
29 82
29 83
29 84
29 85
29 89
29 90
29 97
29 99
30 37
30 38
30 40
30 41
30 43
30 44
30 45
30 46
30 48
30 50
30 51
30 53
30 56
30 58
30 59
30 60
30 62
30 63
30 64
30 66
30 70
30 73
30 74
30 75
30 76
30 78
30 83
30 84
30 85
30 89
30 98
30 99
31 32
31 34
31 35
31 36
31 39
31 44
31 45
31 46
31 48
31 49
31 50
31 51
31 52
31 53
31 56
31 57
31 58
31 59
31 61
31 62
31 64
31 66
31 68
31 70
31 71
31 72
31 75
31 76
31 77
31 79
31 83
31 88
31 90
31 94
31 96
31 97
32 34
32 35
32 36
32 40
32 41
32 43
32 44
32 45
32 49
32 50
32 51
32 52
32 58
32 62
32 63
32 64
32 65
32 69
32 71
32 74
32 76
32 83
32 85
32 87
32 88
32 90
32 93
32 94
32 98
32 99
33 35
33 37
33 38
33 40
33 43
33 45
33 48
33 49
33 50
33 53
33 56
33 57
33 58
33 60
33 62
33 63
33 69
33 70
33 71
33 72
33 73
33 74
33 77
33 79
33 80
33 81
33 83
33 84
33 86
33 88
33 93
33 99
34 36
34 37
34 40
34 41
34 42
34 45
34 47
34 48
34 50
34 51
34 52
34 53
34 54
34 55
34 56
34 57
34 60
34 61
34 63
34 64
34 66
34 69
34 70
34 75
34 79
34 80
34 83
34 86
34 89
34 90
34 91
34 93
34 95
34 96
34 98
34 99
35 37
35 38
35 39
35 40
35 43
35 45
35 47
35 50
35 55
35 58
35 62
35 64
35 65
35 66
35 67
35 68
35 69
35 70
35 73
35 76
35 79
35 84
35 85
35 86
35 88
35 89
35 91
35 92
35 94
35 95
36 37
36 38
36 39
36 40
36 42
36 44
36 46
36 47
36 49
36 50
36 51
36 54
36 55
36 67
36 68
36 70
36 73
36 76
36 78
36 79
36 87
36 88
36 90
36 91
36 92
36 93
36 94
36 95
36 96
36 98
36 99
37 38
37 40
37 46
37 47
37 49
37 50
37 51
37 53
37 54
37 55
37 56
37 58
37 59
37 62
37 64
37 66
37 71
37 72
37 75
37 76
37 78
37 80
37 83
37 84
37 89
37 90
37 92
37 93
37 95
37 96
37 98
37 99
38 39
38 41
38 43
38 47
38 48
38 52
38 53
38 54
38 56
38 57
38 58
38 59
38 60
38 61
38 62
38 63
38 64
38 67
38 70
38 72
38 73
38 74
38 77
38 79
38 80
38 81
38 82
38 83
38 84
38 85
38 86
38 87
38 88
38 89
38 90
38 93
38 94
38 95
39 41
39 45
39 49
39 55
39 56
39 61
39 63
39 67
39 68
39 71
39 72
39 73
39 74
39 75
39 79
39 83
39 84
39 87
39 89
39 90
39 93
39 95
39 98
40 41
40 42
40 43
40 44
40 46
40 51
40 54
40 57
40 60
40 63
40 67
40 71
40 72
40 73
40 79
40 80
40 87
40 88
40 89
40 91
40 92
40 95
40 96
40 97
40 98
40 99
41 42
41 44
41 45
41 47
41 49
41 53
41 56
41 57
41 58
41 59
41 61
41 62
41 63
41 64
41 65
41 72
41 73
41 76
41 78
41 81
41 84
41 85
41 88
41 90
41 91
41 95
41 97
42 44
42 45
42 48
42 53
42 56
42 57
42 58
42 59
42 60
42 63
42 65
42 70
42 74
42 75
42 76
42 79
42 80
42 84
42 85
42 88
42 89
42 91
42 96
42 98
43 44
43 45
43 46
43 47
43 48
43 50
43 52
43 53
43 55
43 58
43 59
43 60
43 61
43 63
43 64
43 65
43 69
43 70
43 72
43 73
43 76
43 80
43 81
43 82
43 83
43 85
43 86
43 87
43 88
43 92
43 94
43 95
43 98
44 46
44 47
44 48
44 49
44 50
44 52
44 54
44 55
44 56
44 57
44 58
44 59
44 63
44 64
44 65
44 66
44 67
44 75
44 77
44 78
44 79
44 81
44 84
44 85
44 86
44 87
44 88
44 90
44 91
44 93
44 95
44 96
44 97
44 98
44 99
45 46
45 48
45 49
45 51
45 52
45 54
45 55
45 56
45 57
45 58
45 60
45 61
45 63
45 64
45 66
45 69
45 71
45 72
45 75
45 76
45 78
45 81
45 82
45 83
45 84
45 86
45 88
45 89
45 90
45 91
45 92
45 93
45 95
45 97
45 98
45 99
46 49
46 56
46 57
46 59
46 61
46 63
46 64
46 65
46 66
46 68
46 69
46 70
46 72
46 73
46 76
46 77
46 78
46 80
46 82
46 83
46 86
46 89
46 90
46 91
46 92
46 93
46 94
46 99
47 49
47 54
47 56
47 57
47 58
47 59
47 61
47 62
47 63
47 65
47 66
47 68
47 73
47 76
47 80
47 81
47 82
47 84
47 86
47 88
47 89
47 90
47 91
47 94
47 96
47 98
47 99
48 53
48 54
48 55
48 57
48 58
48 63
48 66
48 70
48 74
48 75
48 77
48 78
48 81
48 87
48 89
48 90
48 92
48 96
48 97
49 51
49 52
49 55
49 57
49 58
49 59
49 60
49 61
49 62
49 63
49 65
49 68
49 69
49 72
49 73
49 74
49 76
49 82
49 84
49 85
49 87
49 90
49 92
49 94
49 95
49 99
50 51
50 52
50 55
50 56
50 57
50 59
50 60
50 61
50 62
50 63
50 66
50 69
50 71
50 72
50 73
50 75
50 76
50 77
50 78
50 80
50 81
50 84
50 85
50 86
50 87
50 88
50 89
50 91
50 92
50 93
50 96
50 99
51 52
51 54
51 56
51 59
51 61
51 64
51 65
51 66
51 67
51 70
51 71
51 72
51 75
51 76
51 78
51 80
51 82
51 84
51 87
51 88
51 90
51 91
51 95
51 96
51 97
51 98
52 57
52 60
52 62
52 63
52 64
52 65
52 68
52 70
52 72
52 73
52 77
52 79
52 82
52 86
52 88
52 89
52 91
52 92
52 94
52 95
53 55
53 57
53 58
53 60
53 62
53 65
53 66
53 67
53 69
53 70
53 75
53 76
53 77
53 78
53 80
53 81
53 82
53 87
53 89
53 91
53 92
53 94
53 95
53 98
53 99
54 55
54 56
54 60
54 63
54 64
54 65
54 66
54 69
54 71
54 74
54 75
54 76
54 77
54 78
54 79
54 81
54 84
54 86
54 90
54 95
54 96
54 97
54 99
55 58
55 63
55 66
55 68
55 69
55 70
55 75
55 77
55 78
55 80
55 81
55 83
55 84
55 85
55 87
55 88
55 91
55 92
55 93
55 94
55 97
55 98
56 58
56 59
56 62
56 64
56 66
56 68
56 69
56 70
56 71
56 72
56 74
56 75
56 77
56 78
56 79
56 80
56 83
56 92
56 94
56 95
57 59
57 61
57 62
57 63
57 64
57 67
57 68
57 69
57 70
57 71
57 72
57 74
57 76
57 82
57 83
57 84
57 85
57 86
57 87
57 89
57 92
57 93
57 94
57 97
57 98
57 99
58 64
58 67
58 72
58 73
58 75
58 78
58 79
58 82
58 84
58 86
58 91
58 95
59 60
59 61
59 63
59 67
59 70
59 72
59 73
59 74
59 75
59 76
59 79
59 81
59 82
59 83
59 84
59 85
59 90
59 92
59 94
59 95
59 96
59 97
60 63
60 64
60 65
60 70
60 73
60 75
60 76
60 77
60 80
60 81
60 83
60 85
60 86
60 88
60 91
60 92
60 93
60 95
60 97
60 99
61 62
61 64
61 65
61 68
61 69
61 71
61 72
61 77
61 83
61 84
61 85
61 86
61 88
61 89
61 90
61 91
61 92
61 93
61 95
61 98
61 99
62 63
62 64
62 65
62 66
62 69
62 70
62 72
62 73
62 74
62 76
62 79
62 80
62 86
62 87
62 89
62 91
62 92
62 93
62 94
62 99
63 64
63 65
63 67
63 68
63 70
63 71
63 73
63 74
63 75
63 76
63 77
63 79
63 80
63 81
63 82
63 83
63 84
63 92
63 94
63 95
63 96
63 98
64 66
64 67
64 69
64 70
64 71
64 74
64 75
64 77
64 78
64 79
64 80
64 82
64 84
64 85
64 86
64 87
64 89
64 90
64 92
64 93
64 96
64 97
64 99
65 66
65 67
65 68
65 71
65 73
65 74
65 75
65 77
65 78
65 79
65 82
65 86
65 87
65 88
65 89
65 90
65 91
65 92
65 95
65 96
65 99
66 68
66 70
66 72
66 73
66 76
66 77
66 78
66 82
66 85
66 86
66 87
66 88
66 90
66 92
66 93
66 94
66 95
66 98
67 73
67 74
67 77
67 80
67 84
67 85
67 86
67 88
67 92
67 93
67 94
67 95
67 97
68 69
68 70
68 72
68 73
68 74
68 77
68 82
68 83
68 84
68 87
68 88
68 89
68 92
68 96
68 97
68 98
68 99
69 71
69 72
69 78
69 80
69 83
69 86
69 88
69 89
69 90
69 91
69 92
69 93
69 98
69 99
70 72
70 74
70 75
70 77
70 78
70 79
70 80
70 82
70 87
70 88
70 89
70 90
70 91
70 92
70 93
70 94
70 96
70 97
70 99
71 72
71 73
71 76
71 80
71 81
71 86
71 87
71 88
71 90
71 91
71 93
71 94
71 95
71 97
71 99
72 73
72 75
72 78
72 79
72 80
72 82
72 83
72 84
72 85
72 86
72 89
72 92
72 93
72 97
73 74
73 75
73 76
73 79
73 85
73 91
73 92
73 95
73 96
73 98
73 99
74 75
74 77
74 80
74 82
74 83
74 84
74 86
74 87
74 88
74 93
74 95
74 96
74 97
74 98
75 77
75 80
75 82
75 83
75 86
75 88
75 89
75 91
75 92
75 93
75 95
75 96
75 99
76 79
76 82
76 83
76 84
76 85
76 86
76 87
76 89
76 90
76 92
76 93
76 95
76 99
77 78
77 79
77 81
77 84
77 85
77 86
77 87
77 90
77 91
77 92
77 94
77 96
78 79
78 80
78 81
78 82
78 83
78 84
78 85
78 87
78 94
78 95
78 97
78 99
79 81
79 87
79 89
79 90
79 91
79 93
79 94
79 97
80 88
80 92
80 93
80 95
80 96
80 98
80 99
81 82
81 83
81 86
81 87
81 88
81 89
81 90
81 93
81 95
81 98
81 99
82 84
82 85
82 86
82 87
82 88
82 89
82 90
82 91
82 92
82 94
82 96
82 97
82 99
83 84
83 85
83 86
83 88
83 89
83 90
83 91
83 94
83 99
84 85
84 86
84 87
84 88
84 98
85 91
85 93
85 95
85 99
86 89
86 90
86 91
86 96
86 97
87 88
87 89
87 91
87 92
87 94
87 95
87 96
87 97
88 95
88 96
88 98
88 99
89 91
89 92
89 95
89 97
90 91
90 92
90 93
90 94
90 97
90 99
91 92
91 93
91 99
92 96
92 97
93 94
93 95
93 96
93 97
93 99
94 95
94 98
95 96
95 97
96 97
97 98
97 99
98 99
41 19 1 63 94 52 66 39 91 88 99 46 50 30 92 98 47 68 67 59 8 80 73 93 33 75 61 11 22 26
86 16 85 82 15 9 62 64 25 71 42 57 18 21 74 43 24 90 36 2 60 58 4 70 79 77 72 29 28 78
84 5 38 17 31 34 40 95 65 48 23 20 44 6 13 49 83 96 56 10 32 97 7 51 3 0 76 55 45 53
14 54 87 27 81 69 89 12 35 37
